p edge 34 78
e 2 1
e 2 3
e 2 4
e 2 8
e 2 14
e 2 18
e 2 20
e 2 22
e 2 31
e 1 3
e 1 4
e 1 5
e 1 6
e 1 7
e 1 8
e 1 9
e 1 11
e 1 12
e 1 13
e 1 14
e 1 18
e 1 20
e 1 22
e 1 32
e 3 4
e 3 8
e 3 9
e 3 10
e 3 14
e 3 28
e 3 29
e 3 33
e 4 8
e 4 13
e 4 14
e 5 7
e 5 11
e 6 7
e 6 11
e 6 17
e 7 17
e 9 31
e 9 33
e 9 34
e 14 34
e 20 34
e 32 25
e 32 26
e 32 29
e 32 33
e 32 34
e 31 33
e 31 34
e 10 34
e 28 24
e 28 25
e 28 34
e 29 34
e 33 15
e 33 16
e 33 19
e 33 21
e 33 23
e 33 24
e 33 30
e 33 34
e 34 15
e 34 16
e 34 19
e 34 21
e 34 23
e 34 24
e 34 27
e 34 30
e 26 24
e 26 25
e 24 30
e 30 27
